NAME : 0.1611389.tour
COMMENT : Length = 1611389
COMMENT : Found by LKH-3 [Keld Helsgaun] Tue Apr  9 02:30:49 2024
TYPE : TOUR
DIMENSION : 859
TOUR_SECTION
1
32
31
30
29
28
27
26
25
24
23
22
21
20
19
103
104
105
106
107
108
109
110
111
112
196
195
194
193
192
191
190
189
188
187
100
99
15
16
853
41
125
291
375
542
541
625
626
627
628
629
630
631
632
633
717
716
715
714
713
712
711
710
709
792
791
790
789
788
787
786
785
784
783
782
781
780
779
778
777
776
609
610
526
525
441
357
271
186
102
854
43
44
45
46
131
132
133
134
135
136
137
221
220
219
218
217
216
215
214
213
212
211
210
209
208
207
206
205
204
203
119
120
121
122
123
124
40
39
38
37
36
35
849
115
199
283
367
451
450
449
448
447
446
445
529
530
531
532
533
534
535
619
618
617
616
615
614
613
612
611
527
528
444
443
442
358
359
360
361
362
363
364
365
366
282
198
114
845
141
140
139
138
222
223
224
225
226
227
311
310
309
308
307
306
305
304
303
302
301
300
299
383
384
385
386
387
388
389
390
391
392
393
394
395
396
312
228
144
143
142
859
47
48
49
50
51
52
53
54
55
56
57
58
59
60
61
62
63
64
65
66
67
68
70
71
72
73
74
75
76
77
78
79
856
4
5
6
7
8
9
93
92
91
90
89
173
174
175
176
260
259
258
257
256
255
254
337
335
334
333
332
331
330
329
328
327
326
325
324
323
322
321
237
236
235
151
152
153
69
850
315
399
400
484
483
567
568
569
653
652
651
650
565
564
563
562
561
560
559
558
557
556
555
554
553
552
468
469
470
471
472
473
474
475
476
477
478
479
480
481
397
313
229
145
855
150
234
318
403
488
489
490
491
492
576
575
574
573
572
656
657
658
659
660
661
662
663
664
665
666
667
668
669
670
671
672
673
590
591
592
593
594
510
509
508
423
422
505
504
336
166
846
34
117
201
284
368
452
453
537
536
620
704
703
702
701
700
699
698
697
696
695
694
693
692
691
690
689
688
687
686
685
684
683
682
681
680
596
597
598
599
600
601
517
434
350
266
182
98
14
848
13
97
181
265
349
433
516
515
514
513
512
511
595
679
678
677
676
675
674
757
756
755
754
753
752
751
750
749
748
747
746
745
744
743
742
741
740
739
655
571
487
486
402
316
233
149
844
290
374
543
544
545
546
547
548
549
550
634
718
719
720
721
722
723
724
725
726
727
728
729
730
731
732
648
647
646
645
644
643
642
641
640
639
638
637
636
635
551
467
466
382
298
130
851
18
17
101
184
183
267
268
269
353
352
351
435
436
437
521
520
519
518
602
603
604
605
606
607
608
524
440
439
355
356
272
273
274
275
276
277
278
279
280
281
197
113
858
3
2
85
84
83
167
168
169
86
87
88
172
171
170
253
252
251
250
249
248
247
246
245
244
243
242
241
240
239
238
154
155
156
157
158
159
160
161
162
163
164
80
847
11
12
96
180
264
348
432
431
430
429
428
427
426
425
424
507
506
589
588
587
586
585
584
583
582
581
580
579
578
577
493
494
495
496
497
498
499
500
501
502
503
165
81
82
842
42
126
127
128
129
297
296
295
294
293
292
376
377
378
379
380
381
465
464
463
462
461
460
459
458
457
456
540
624
623
539
455
371
372
373
289
288
287
286
200
116
33
843
317
401
485
570
654
738
822
823
824
825
826
827
828
829
830
831
832
833
834
835
836
837
838
839
840
841
758
759
760
761
762
763
764
765
766
767
768
769
770
771
772
773
774
775
523
522
438
354
270
185
852
10
94
95
179
178
177
261
262
263
347
346
345
344
343
342
341
340
339
338
421
420
419
418
417
416
415
414
413
412
411
410
409
408
407
406
405
404
320
319
232
231
147
148
857
118
202
285
369
370
454
538
622
621
705
706
707
708
793
794
795
796
797
798
799
800
801
802
803
804
805
806
807
808
809
810
811
812
813
814
815
816
817
818
819
820
821
737
736
735
734
733
649
566
482
398
314
230
146
-1
EOF
